JulietBench/Juliet_Based_Patch_Bench/linux/CWE-189-Numeric-Errors/CVE_2010_3859_8acfe468b0384e834a303f08ebc4953d72fb690a/solververify_iovec_Snippet_patch2.smt2
; benchmark generated from python API
(set-info :status unknown)
(declare-fun R () (_ BitVec 32))
(declare-fun rdi () (_ BitVec 64))
(assert
 (let (($x227 (and (distinct (_ bv3 32) R) true)))
 (let (($x231 (= (_ bv4294967256 32) R)))
 (let ((?x6 ((_ extract 31 0) rdi)))
 (let ((?x7 ((_ zero_extend 32) ?x6)))
 (let ((?x11 (bvlshr ?x7 (_ bv31 64))))
 (let ((?x20 ((_ extract 0 0) ?x11)))
 (let ((?x27 (bvand ?x20 (_ bv1 1))))
 (let (($x26 (and (distinct (_ bv0 1) ?x27) true)))
 (let (($x229 (and $x26 $x231)))
 (let (($x53 (= (_ bv0 1) ?x27)))
 (let ((?x67 (bvmul (_ bv2 32) ?x6)))
 (let ((?x68 ((_ zero_extend 32) ?x67)))
 (let ((?x70 (bvlshr ?x68 (_ bv31 64))))
 (let ((?x71 ((_ extract 0 0) ?x70)))
 (let ((?x72 (bvand ?x71 (_ bv1 1))))
 (let (($x73 (and (distinct (_ bv0 1) ?x72) true)))
 (let (($x228 (and $x73 $x53 $x231)))
 (let (($x149 (= (_ bv0 1) ?x72)))
 (let ((?x64 (bvmul (_ bv3 32) ?x6)))
 (let ((?x60 ((_ zero_extend 32) ?x64)))
 (let ((?x151 (bvlshr ?x60 (_ bv31 64))))
 (let ((?x155 ((_ extract 0 0) ?x151)))
 (let ((?x156 (bvand ?x155 (_ bv1 1))))
 (let (($x157 (and (distinct (_ bv0 1) ?x156) true)))
 (let (($x230 (and $x157 $x149 $x53 $x231)))
 (let (($x62 (= R ?x64)))
 (let (($x225 (= (_ bv0 1) ?x156)))
 (let (($x232 (and $x225 $x149 $x53 $x62)))
 (let (($x237 (or $x232 $x230 $x228 $x229)))
 (let (($x226 (not $x237)))
 (let (($x234 (and $x226 $x227)))
 (let (($x238 (= (_ bv3 32) R)))
 (let (($x239 (and $x237 $x238)))
 (let (($x240 (or $x239 $x234)))
 (not $x240))))))))))))))))))))))))))))))))))))
(check-sat)
